p cnf 959 2460
51 -2 -1 0
-51 2 0
-51 1 0
52 -51 -3 0
-52 51 0
-52 3 0
53 -5 -4 0
-53 5 0
-53 4 0
54 -53 -6 0
-54 53 0
-54 6 0
55 -692 -693 0
-55 692 0
-55 693 0
56 -7 -694 0
-56 7 0
-56 694 0
57 -56 -695 0
-57 56 0
-57 695 0
58 -696 -55 0
-58 696 0
-58 55 0
59 -697 -9 0
-59 697 0
-59 9 0
60 -59 -698 0
-60 59 0
-60 698 0
61 -699 -58 0
-61 699 0
-61 58 0
62 -700 -1 0
-62 700 0
-62 1 0
63 -62 -12 0
-63 62 0
-63 12 0
64 -701 -61 0
-64 701 0
-64 61 0
65 -702 -697 0
-65 702 0
-65 697 0
66 -65 -703 0
-66 65 0
-66 703 0
67 -704 -64 0
-67 704 0
-67 64 0
68 -15 -9 0
-68 15 0
-68 9 0
69 -68 -16 0
-69 68 0
-69 16 0
70 -705 -67 0
-70 705 0
-70 67 0
71 -706 -707 0
-71 706 0
-71 707 0
72 -71 -19 0
-72 71 0
-72 19 0
73 -708 -70 0
-73 708 0
-73 70 0
74 -709 -710 0
-74 709 0
-74 710 0
75 -74 -711 0
-75 74 0
-75 711 0
76 -712 -73 0
-76 712 0
-76 73 0
77 -711 -697 0
-77 711 0
-77 697 0
78 -77 -713 0
-78 77 0
-78 713 0
79 -714 -76 0
-79 714 0
-79 76 0
80 -24 -715 0
-80 24 0
-80 715 0
81 -80 -716 0
-81 80 0
-81 716 0
82 -717 -79 0
-82 717 0
-82 79 0
83 -718 -719 0
-83 718 0
-83 719 0
84 -83 -2 0
-84 83 0
-84 2 0
85 -720 -82 0
-85 720 0
-85 82 0
86 -27 -23 0
-86 27 0
-86 23 0
87 -86 -721 0
-87 86 0
-87 721 0
88 -722 -85 0
-88 722 0
-88 85 0
89 -723 -29 0
-89 723 0
-89 29 0
90 -89 -7 0
-90 89 0
-90 7 0
91 -724 -88 0
-91 724 0
-91 88 0
92 -725 -719 0
-92 725 0
-92 719 0
93 -92 -716 0
-93 92 0
-93 716 0
94 -726 -91 0
-94 726 0
-94 91 0
95 -727 -19 0
-95 727 0
-95 19 0
96 -95 -703 0
-96 95 0
-96 703 0
97 -728 -94 0
-97 728 0
-97 94 0
98 -32 -729 0
-98 32 0
-98 729 0
99 -98 -11 0
-99 98 0
-99 11 0
100 -730 -97 0
-100 730 0
-100 97 0
101 -34 -731 0
-101 34 0
-101 731 0
102 -101 -15 0
-102 101 0
-102 15 0
103 -732 -100 0
-103 732 0
-103 100 0
104 -9 -1 0
-104 9 0
-104 1 0
105 -104 -713 0
-105 104 0
-105 713 0
106 -733 -103 0
-106 733 0
-106 103 0
107 -34 -14 0
-107 34 0
-107 14 0
108 -107 -734 0
-108 107 0
-108 734 0
109 -735 -106 0
-109 735 0
-109 106 0
110 -36 -6 0
-110 36 0
-110 6 0
111 -110 -736 0
-111 110 0
-111 736 0
112 -737 -109 0
-112 737 0
-112 109 0
113 -30 -713 0
-113 30 0
-113 713 0
114 -113 -16 0
-114 113 0
-114 16 0
115 -738 -112 0
-115 738 0
-115 112 0
116 -38 -700 0
-116 38 0
-116 700 0
117 -116 -695 0
-117 116 0
-117 695 0
118 -739 -115 0
-118 739 0
-118 115 0
119 -39 -5 0
-119 39 0
-119 5 0
120 -119 -28 0
-120 119 0
-120 28 0
121 -740 -118 0
-121 740 0
-121 118 0
122 -40 -20 0
-122 40 0
-122 20 0
123 -122 -697 0
-123 122 0
-123 697 0
124 -741 -121 0
-124 741 0
-124 121 0
125 -23 -742 0
-125 23 0
-125 742 0
126 -125 -743 0
-126 125 0
-126 743 0
127 -744 -124 0
-127 744 0
-127 124 0
128 -9 -2 0
-128 9 0
-128 2 0
129 -128 -716 0
-129 128 0
-129 716 0
130 -745 -127 0
-130 745 0
-130 127 0
131 -727 -6 0
-131 727 0
-131 6 0
132 -131 -746 0
-132 131 0
-132 746 0
133 -747 -130 0
-133 747 0
-133 130 0
134 -30 -9 0
-134 30 0
-134 9 0
135 -134 -42 0
-135 134 0
-135 42 0
136 -748 -133 0
-136 748 0
-136 133 0
137 -43 -727 0
-137 43 0
-137 727 0
138 -137 -749 0
-138 137 0
-138 749 0
139 -750 -136 0
-139 750 0
-139 136 0
140 -45 -44 0
-140 45 0
-140 44 0
141 -140 -46 0
-141 140 0
-141 46 0
142 -751 -139 0
-142 751 0
-142 139 0
143 -752 -727 0
-143 752 0
-143 727 0
144 -143 -22 0
-144 143 0
-144 22 0
145 -753 -142 0
-145 753 0
-145 142 0
146 -19 -14 0
-146 19 0
-146 14 0
147 -146 -15 0
-147 146 0
-147 15 0
148 -754 -145 0
-148 754 0
-148 145 0
149 -11 -695 0
-149 11 0
-149 695 0
150 -149 -749 0
-150 149 0
-150 749 0
151 -755 -148 0
-151 755 0
-151 148 0
152 -40 -707 0
-152 40 0
-152 707 0
153 -152 -756 0
-153 152 0
-153 756 0
154 -757 -151 0
-154 757 0
-154 151 0
155 -104 -695 0
-155 104 0
-155 695 0
156 -758 -154 0
-156 758 0
-156 154 0
157 -759 -760 0
-157 759 0
-157 760 0
158 -157 -749 0
-158 157 0
-158 749 0
159 -761 -156 0
-159 761 0
-159 156 0
160 -49 -721 0
-160 49 0
-160 721 0
161 -160 -698 0
-161 160 0
-161 698 0
162 -762 -159 0
-162 762 0
-162 159 0
163 -715 -9 0
-163 715 0
-163 9 0
164 -163 -43 0
-164 163 0
-164 43 0
165 -763 -162 0
-165 763 0
-165 162 0
166 -8 -5 0
-166 8 0
-166 5 0
167 -166 -764 0
-167 166 0
-167 764 0
168 -765 -165 0
-168 765 0
-168 165 0
169 -13 -766 0
-169 13 0
-169 766 0
170 -169 -28 0
-170 169 0
-170 28 0
171 -767 -168 0
-171 767 0
-171 168 0
172 -44 -20 0
-172 44 0
-172 20 0
173 -172 -8 0
-173 172 0
-173 8 0
174 -768 -171 0
-174 768 0
-174 171 0
175 -731 -17 0
-175 731 0
-175 17 0
176 -175 -713 0
-176 175 0
-176 713 0
177 -769 -174 0
-177 769 0
-177 174 0
178 -770 -5 0
-178 770 0
-178 5 0
179 -178 -721 0
-179 178 0
-179 721 0
180 -771 -177 0
-180 771 0
-180 177 0
181 -772 -4 0
-181 772 0
-181 4 0
182 -181 -28 0
-182 181 0
-182 28 0
183 -773 -180 0
-183 773 0
-183 180 0
184 -16 -7 0
-184 16 0
-184 7 0
185 -184 -756 0
-185 184 0
-185 756 0
186 -774 -183 0
-186 774 0
-186 183 0
187 -178 -775 0
-187 178 0
-187 775 0
188 -776 -186 0
-188 776 0
-188 186 0
189 -775 -14 0
-189 775 0
-189 14 0
190 -189 -764 0
-190 189 0
-190 764 0
191 -777 -188 0
-191 777 0
-191 188 0
192 -47 -703 0
-192 47 0
-192 703 0
193 -192 -698 0
-193 192 0
-193 698 0
194 -778 -191 0
-194 778 0
-194 191 0
195 -779 -4 0
-195 779 0
-195 4 0
196 -195 -716 0
-196 195 0
-196 716 0
197 -780 -194 0
-197 780 0
-197 194 0
198 -29 -24 0
-198 29 0
-198 24 0
199 -198 -42 0
-199 198 0
-199 42 0
200 -781 -197 0
-200 781 0
-200 197 0
201 -702 -7 0
-201 702 0
-201 7 0
202 -201 -19 0
-202 201 0
-202 19 0
203 -782 -200 0
-203 782 0
-203 200 0
204 -783 -729 0
-204 783 0
-204 729 0
205 -204 -784 0
-205 204 0
-205 784 0
206 -785 -203 0
-206 785 0
-206 203 0
207 -44 -718 0
-207 44 0
-207 718 0
208 -207 -12 0
-208 207 0
-208 12 0
209 -786 -206 0
-209 786 0
-209 206 0
210 -31 -742 0
-210 31 0
-210 742 0
211 -210 -697 0
-211 210 0
-211 697 0
212 -787 -209 0
-212 787 0
-212 209 0
213 -743 -27 0
-213 743 0
-213 27 0
214 -213 -772 0
-214 213 0
-214 772 0
215 -788 -212 0
-215 788 0
-215 212 0
216 -709 -789 0
-216 709 0
-216 789 0
217 -216 -719 0
-217 216 0
-217 719 0
218 -790 -215 0
-218 790 0
-218 215 0
219 -700 -6 0
-219 700 0
-219 6 0
220 -219 -764 0
-220 219 0
-220 764 0
221 -791 -218 0
-221 791 0
-221 218 0
222 -21 -702 0
-222 21 0
-222 702 0
223 -222 -760 0
-223 222 0
-223 760 0
224 -792 -221 0
-224 792 0
-224 221 0
225 -43 -20 0
-225 43 0
-225 20 0
226 -225 -760 0
-226 225 0
-226 760 0
227 -793 -224 0
-227 793 0
-227 224 0
228 -43 -16 0
-228 43 0
-228 16 0
229 -228 -756 0
-229 228 0
-229 756 0
230 -794 -227 0
-230 794 0
-230 227 0
231 -39 -710 0
-231 39 0
-231 710 0
232 -231 -26 0
-232 231 0
-232 26 0
233 -795 -230 0
-233 795 0
-233 230 0
234 -746 -707 0
-234 746 0
-234 707 0
235 -234 -796 0
-235 234 0
-235 796 0
236 -797 -233 0
-236 797 0
-236 233 0
237 -19 -742 0
-237 19 0
-237 742 0
238 -237 -766 0
-238 237 0
-238 766 0
239 -798 -236 0
-239 798 0
-239 236 0
240 -796 -44 0
-240 796 0
-240 44 0
241 -240 -698 0
-241 240 0
-241 698 0
242 -799 -239 0
-242 799 0
-242 239 0
243 -783 -789 0
-243 783 0
-243 789 0
244 -243 -4 0
-244 243 0
-244 4 0
245 -800 -242 0
-245 800 0
-245 242 0
246 -44 -702 0
-246 44 0
-246 702 0
247 -246 -801 0
-247 246 0
-247 801 0
248 -802 -245 0
-248 802 0
-248 245 0
249 -711 -14 0
-249 711 0
-249 14 0
250 -249 -756 0
-250 249 0
-250 756 0
251 -803 -248 0
-251 803 0
-251 248 0
252 -711 -742 0
-252 711 0
-252 742 0
253 -252 -35 0
-253 252 0
-253 35 0
254 -804 -251 0
-254 804 0
-254 251 0
255 -710 -13 0
-255 710 0
-255 13 0
256 -255 -46 0
-256 255 0
-256 46 0
257 -805 -254 0
-257 805 0
-257 254 0
258 -727 -13 0
-258 727 0
-258 13 0
259 -258 -23 0
-259 258 0
-259 23 0
260 -806 -257 0
-260 806 0
-260 257 0
261 -770 -39 0
-261 770 0
-261 39 0
262 -261 -47 0
-262 261 0
-262 47 0
263 -807 -260 0
-263 807 0
-263 260 0
264 -28 -13 0
-264 28 0
-264 13 0
265 -264 -3 0
-265 264 0
-265 3 0
266 -808 -263 0
-266 808 0
-266 263 0
267 -809 -26 0
-267 809 0
-267 26 0
268 -267 -801 0
-268 267 0
-268 801 0
269 -810 -266 0
-269 810 0
-269 266 0
270 -770 -759 0
-270 770 0
-270 759 0
271 -270 -695 0
-271 270 0
-271 695 0
272 -811 -269 0
-272 811 0
-272 269 0
273 -718 -5 0
-273 718 0
-273 5 0
274 -273 -721 0
-274 273 0
-274 721 0
275 -812 -272 0
-275 812 0
-275 272 0
276 -713 -711 0
-276 713 0
-276 711 0
277 -276 -760 0
-277 276 0
-277 760 0
278 -813 -275 0
-278 813 0
-278 275 0
279 -36 -742 0
-279 36 0
-279 742 0
280 -279 -779 0
-280 279 0
-280 779 0
281 -814 -278 0
-281 814 0
-281 278 0
282 -21 -711 0
-282 21 0
-282 711 0
283 -282 -749 0
-283 282 0
-283 749 0
284 -815 -281 0
-284 815 0
-284 281 0
285 -801 -30 0
-285 801 0
-285 30 0
286 -285 -760 0
-286 285 0
-286 760 0
287 -816 -284 0
-287 816 0
-287 284 0
288 -34 -718 0
-288 34 0
-288 718 0
289 -288 -47 0
-289 288 0
-289 47 0
290 -817 -287 0
-290 817 0
-290 287 0
291 -42 -8 0
-291 42 0
-291 8 0
292 -291 -11 0
-292 291 0
-292 11 0
293 -818 -290 0
-293 818 0
-293 290 0
294 -49 -19 0
-294 49 0
-294 19 0
295 -294 -734 0
-295 294 0
-295 734 0
296 -819 -293 0
-296 819 0
-296 293 0
297 -770 -703 0
-297 770 0
-297 703 0
298 -297 -6 0
-298 297 0
-298 6 0
299 -820 -296 0
-299 820 0
-299 296 0
300 -7 -766 0
-300 7 0
-300 766 0
301 -300 -2 0
-301 300 0
-301 2 0
302 -821 -299 0
-302 821 0
-302 299 0
303 -822 -760 0
-303 822 0
-303 760 0
304 -303 -35 0
-304 303 0
-304 35 0
305 -823 -302 0
-305 823 0
-305 302 0
306 -703 -13 0
-306 703 0
-306 13 0
307 -306 -12 0
-307 306 0
-307 12 0
308 -824 -305 0
-308 824 0
-308 305 0
309 -41 -825 0
-309 41 0
-309 825 0
310 -309 -16 0
-310 309 0
-310 16 0
311 -826 -308 0
-311 826 0
-311 308 0
312 -17 -789 0
-312 17 0
-312 789 0
313 -312 -21 0
-313 312 0
-313 21 0
314 -827 -311 0
-314 827 0
-314 311 0
315 -31 -710 0
-315 31 0
-315 710 0
316 -315 -2 0
-316 315 0
-316 2 0
317 -828 -314 0
-317 828 0
-317 314 0
318 -743 -715 0
-318 743 0
-318 715 0
319 -318 -3 0
-319 318 0
-319 3 0
320 -829 -317 0
-320 829 0
-320 317 0
321 -809 -711 0
-321 809 0
-321 711 0
322 -321 -756 0
-322 321 0
-322 756 0
323 -830 -320 0
-323 830 0
-323 320 0
324 -31 -702 0
-324 31 0
-324 702 0
325 -324 -711 0
-325 324 0
-325 711 0
326 -831 -323 0
-326 831 0
-326 323 0
327 -21 -6 0
-327 21 0
-327 6 0
328 -327 -49 0
-328 327 0
-328 49 0
329 -832 -326 0
-329 832 0
-329 326 0
330 -779 -10 0
-330 779 0
-330 10 0
331 -330 -734 0
-331 330 0
-331 734 0
332 -833 -329 0
-332 833 0
-332 329 0
333 -36 -809 0
-333 36 0
-333 809 0
334 -333 -14 0
-334 333 0
-334 14 0
335 -834 -332 0
-335 834 0
-335 332 0
336 -39 -20 0
-336 39 0
-336 20 0
337 -336 -19 0
-337 336 0
-337 19 0
338 -835 -335 0
-338 835 0
-338 335 0
339 -715 -709 0
-339 715 0
-339 709 0
340 -339 -28 0
-340 339 0
-340 28 0
341 -836 -338 0
-341 836 0
-341 338 0
342 -20 -1 0
-342 20 0
-342 1 0
343 -342 -12 0
-343 342 0
-343 12 0
344 -837 -341 0
-344 837 0
-344 341 0
345 -26 -13 0
-345 26 0
-345 13 0
346 -345 -734 0
-346 345 0
-346 734 0
347 -838 -344 0
-347 838 0
-347 344 0
348 -47 -1 0
-348 47 0
-348 1 0
349 -348 -756 0
-349 348 0
-349 756 0
350 -839 -347 0
-350 839 0
-350 347 0
351 -40 -9 0
-351 40 0
-351 9 0
352 -351 -24 0
-352 351 0
-352 24 0
353 -840 -350 0
-353 840 0
-353 350 0
354 -783 -841 0
-354 783 0
-354 841 0
355 -354 -825 0
-355 354 0
-355 825 0
356 -842 -353 0
-356 842 0
-356 353 0
357 -822 -36 0
-357 822 0
-357 36 0
358 -357 -25 0
-358 357 0
-358 25 0
359 -843 -356 0
-359 843 0
-359 356 0
360 -45 -721 0
-360 45 0
-360 721 0
361 -360 -25 0
-361 360 0
-361 25 0
362 -844 -359 0
-362 844 0
-362 359 0
363 -39 -13 0
-363 39 0
-363 13 0
364 -363 -746 0
-364 363 0
-364 746 0
365 -845 -362 0
-365 845 0
-365 362 0
366 -36 -711 0
-366 36 0
-366 711 0
367 -366 -11 0
-367 366 0
-367 11 0
368 -846 -365 0
-368 846 0
-368 365 0
369 -731 -727 0
-369 731 0
-369 727 0
370 -369 -783 0
-370 369 0
-370 783 0
371 -847 -368 0
-371 847 0
-371 368 0
372 -36 -695 0
-372 36 0
-372 695 0
373 -372 -721 0
-373 372 0
-373 721 0
374 -848 -371 0
-374 848 0
-374 371 0
375 -770 -16 0
-375 770 0
-375 16 0
376 -375 -734 0
-376 375 0
-376 734 0
377 -849 -374 0
-377 849 0
-377 374 0
378 -850 -25 0
-378 850 0
-378 25 0
379 -378 -12 0
-379 378 0
-379 12 0
380 -851 -377 0
-380 851 0
-380 377 0
381 -48 -784 0
-381 48 0
-381 784 0
382 -381 -734 0
-382 381 0
-382 734 0
383 -852 -380 0
-383 852 0
-383 380 0
384 -19 -10 0
-384 19 0
-384 10 0
385 -384 -801 0
-385 384 0
-385 801 0
386 -853 -383 0
-386 853 0
-386 383 0
387 -45 -23 0
-387 45 0
-387 23 0
388 -387 -756 0
-388 387 0
-388 756 0
389 -854 -386 0
-389 854 0
-389 386 0
390 -695 -1 0
-390 695 0
-390 1 0
391 -390 -6 0
-391 390 0
-391 6 0
392 -855 -389 0
-392 855 0
-392 389 0
393 -282 -825 0
-393 282 0
-393 825 0
394 -856 -392 0
-394 856 0
-394 392 0
395 -752 -783 0
-395 752 0
-395 783 0
396 -395 -857 0
-396 395 0
-396 857 0
397 -858 -394 0
-397 858 0
-397 394 0
398 -710 -10 0
-398 710 0
-398 10 0
399 -398 -695 0
-399 398 0
-399 695 0
400 -859 -397 0
-400 859 0
-400 397 0
401 -727 -30 0
-401 727 0
-401 30 0
402 -401 -743 0
-402 401 0
-402 743 0
403 -860 -400 0
-403 860 0
-403 400 0
404 -47 -731 0
-404 47 0
-404 731 0
405 -404 -15 0
-405 404 0
-405 15 0
406 -861 -403 0
-406 861 0
-406 403 0
407 -38 -13 0
-407 38 0
-407 13 0
408 -407 -41 0
-408 407 0
-408 41 0
409 -862 -406 0
-409 862 0
-409 406 0
410 -723 -718 0
-410 723 0
-410 718 0
411 -410 -796 0
-411 410 0
-411 796 0
412 -863 -409 0
-412 863 0
-412 409 0
413 -710 -702 0
-413 710 0
-413 702 0
414 -413 -48 0
-414 413 0
-414 48 0
415 -864 -412 0
-415 864 0
-415 412 0
416 -10 -7 0
-416 10 0
-416 7 0
417 -416 -796 0
-417 416 0
-417 796 0
418 -865 -415 0
-418 865 0
-418 415 0
419 -59 -14 0
-419 59 0
-419 14 0
420 -866 -418 0
-420 866 0
-420 418 0
421 -727 -697 0
-421 727 0
-421 697 0
422 -421 -50 0
-422 421 0
-422 50 0
423 -867 -420 0
-423 867 0
-423 420 0
424 -736 -695 0
-424 736 0
-424 695 0
425 -424 -764 0
-425 424 0
-425 764 0
426 -868 -423 0
-426 868 0
-426 423 0
427 -27 -18 0
-427 27 0
-427 18 0
428 -427 -35 0
-428 427 0
-428 35 0
429 -869 -426 0
-429 869 0
-429 426 0
430 -43 -9 0
-430 43 0
-430 9 0
431 -430 -11 0
-431 430 0
-431 11 0
432 -870 -429 0
-432 870 0
-432 429 0
433 -841 -742 0
-433 841 0
-433 742 0
434 -433 -3 0
-434 433 0
-434 3 0
435 -871 -432 0
-435 871 0
-435 432 0
436 -841 -727 0
-436 841 0
-436 727 0
437 -436 -721 0
-437 436 0
-437 721 0
438 -872 -435 0
-438 872 0
-438 435 0
439 -727 -700 0
-439 727 0
-439 700 0
440 -439 -764 0
-440 439 0
-440 764 0
441 -873 -438 0
-441 873 0
-441 438 0
442 -809 -1 0
-442 809 0
-442 1 0
443 -442 -766 0
-443 442 0
-443 766 0
444 -874 -441 0
-444 874 0
-444 441 0
445 -796 -695 0
-445 796 0
-445 695 0
446 -445 -3 0
-446 445 0
-446 3 0
447 -875 -444 0
-447 875 0
-447 444 0
448 -36 -14 0
-448 36 0
-448 14 0
449 -448 -50 0
-449 448 0
-449 50 0
450 -876 -447 0
-450 876 0
-450 447 0
451 -716 -19 0
-451 716 0
-451 19 0
452 -451 -764 0
-452 451 0
-452 764 0
453 -877 -450 0
-453 877 0
-453 450 0
454 -707 -4 0
-454 707 0
-454 4 0
455 -454 -825 0
-455 454 0
-455 825 0
456 -878 -453 0
-456 878 0
-456 453 0
457 -18 -707 0
-457 18 0
-457 707 0
458 -457 -28 0
-458 457 0
-458 28 0
459 -879 -456 0
-459 879 0
-459 456 0
460 -9 -5 0
-460 9 0
-460 5 0
461 -460 -736 0
-461 460 0
-461 736 0
462 -880 -459 0
-462 880 0
-462 459 0
463 -746 -20 0
-463 746 0
-463 20 0
464 -463 -28 0
-464 463 0
-464 28 0
465 -881 -462 0
-465 881 0
-465 462 0
466 -29 -9 0
-466 29 0
-466 9 0
467 -466 -4 0
-467 466 0
-467 4 0
468 -882 -465 0
-468 882 0
-468 465 0
469 -47 -23 0
-469 47 0
-469 23 0
470 -469 -760 0
-470 469 0
-470 760 0
471 -883 -468 0
-471 883 0
-471 468 0
472 -723 -26 0
-472 723 0
-472 26 0
473 -472 -743 0
-473 472 0
-473 743 0
474 -884 -471 0
-474 884 0
-474 471 0
475 -22 -20 0
-475 22 0
-475 20 0
476 -475 -734 0
-476 475 0
-476 734 0
477 -885 -474 0
-477 885 0
-477 474 0
478 -809 -703 0
-478 809 0
-478 703 0
479 -478 -716 0
-479 478 0
-479 716 0
480 -886 -477 0
-480 886 0
-480 477 0
481 -743 -809 0
-481 743 0
-481 809 0
482 -481 -698 0
-482 481 0
-482 698 0
483 -887 -480 0
-483 887 0
-483 480 0
484 -841 -779 0
-484 841 0
-484 779 0
485 -484 -721 0
-485 484 0
-485 721 0
486 -888 -483 0
-486 888 0
-486 483 0
487 -29 -19 0
-487 29 0
-487 19 0
488 -487 -743 0
-488 487 0
-488 743 0
489 -889 -486 0
-489 889 0
-489 486 0
490 -47 -789 0
-490 47 0
-490 789 0
491 -490 -772 0
-491 490 0
-491 772 0
492 -890 -489 0
-492 890 0
-492 489 0
493 -50 -41 0
-493 50 0
-493 41 0
494 -493 -736 0
-494 493 0
-494 736 0
495 -891 -492 0
-495 891 0
-495 492 0
496 -39 -727 0
-496 39 0
-496 727 0
497 -496 -11 0
-497 496 0
-497 11 0
498 -892 -495 0
-498 892 0
-498 495 0
499 -850 -729 0
-499 850 0
-499 729 0
500 -499 -16 0
-500 499 0
-500 16 0
501 -893 -498 0
-501 893 0
-501 498 0
502 -13 -7 0
-502 13 0
-502 7 0
503 -502 -38 0
-503 502 0
-503 38 0
504 -894 -501 0
-504 894 0
-504 501 0
505 -30 -21 0
-505 30 0
-505 21 0
506 -505 -28 0
-506 505 0
-506 28 0
507 -895 -504 0
-507 895 0
-507 504 0
508 -759 -784 0
-508 759 0
-508 784 0
509 -508 -50 0
-509 508 0
-509 50 0
510 -896 -507 0
-510 896 0
-510 507 0
511 -723 -710 0
-511 723 0
-511 710 0
512 -511 -700 0
-512 511 0
-512 700 0
513 -897 -510 0
-513 897 0
-513 510 0
514 -770 -707 0
-514 770 0
-514 707 0
515 -514 -734 0
-515 514 0
-515 734 0
516 -898 -513 0
-516 898 0
-516 513 0
517 -23 -19 0
-517 23 0
-517 19 0
518 -517 -695 0
-518 517 0
-518 695 0
519 -899 -516 0
-519 899 0
-519 516 0
520 -703 -10 0
-520 703 0
-520 10 0
521 -520 -45 0
-521 520 0
-521 45 0
522 -900 -519 0
-522 900 0
-522 519 0
523 -39 -715 0
-523 39 0
-523 715 0
524 -523 -857 0
-524 523 0
-524 857 0
525 -901 -522 0
-525 901 0
-525 522 0
526 -841 -710 0
-526 841 0
-526 710 0
527 -526 -718 0
-527 526 0
-527 718 0
528 -902 -525 0
-528 902 0
-528 525 0
529 -50 -8 0
-529 50 0
-529 8 0
530 -529 -721 0
-530 529 0
-530 721 0
531 -903 -528 0
-531 903 0
-531 528 0
532 -752 -44 0
-532 752 0
-532 44 0
533 -532 -24 0
-533 532 0
-533 24 0
534 -904 -531 0
-534 904 0
-534 531 0
535 -27 -15 0
-535 27 0
-535 15 0
536 -535 -25 0
-536 535 0
-536 25 0
537 -905 -534 0
-537 905 0
-537 534 0
538 -421 -25 0
-538 421 0
-538 25 0
539 -906 -537 0
-539 906 0
-539 537 0
540 -10 -5 0
-540 10 0
-540 5 0
541 -540 -8 0
-541 540 0
-541 8 0
542 -907 -539 0
-542 907 0
-542 539 0
543 -27 -703 0
-543 27 0
-543 703 0
544 -543 -5 0
-544 543 0
-544 5 0
545 -908 -542 0
-545 908 0
-545 542 0
546 -45 -7 0
-546 45 0
-546 7 0
547 -546 -796 0
-547 546 0
-547 796 0
548 -909 -545 0
-548 909 0
-548 545 0
549 -137 -775 0
-549 137 0
-549 775 0
550 -910 -548 0
-550 910 0
-550 548 0
551 -36 -789 0
-551 36 0
-551 789 0
552 -551 -698 0
-552 551 0
-552 698 0
553 -911 -550 0
-553 911 0
-553 550 0
554 -723 -15 0
-554 723 0
-554 15 0
555 -554 -857 0
-555 554 0
-555 857 0
556 -912 -553 0
-556 912 0
-556 553 0
557 -24 -23 0
-557 24 0
-557 23 0
558 -557 -25 0
-558 557 0
-558 25 0
559 -913 -556 0
-559 913 0
-559 556 0
560 -779 -14 0
-560 779 0
-560 14 0
561 -560 -6 0
-561 560 0
-561 6 0
562 -914 -559 0
-562 914 0
-562 559 0
563 -729 -694 0
-563 729 0
-563 694 0
564 -563 -743 0
-564 563 0
-564 743 0
565 -915 -562 0
-565 915 0
-565 562 0
566 -43 -759 0
-566 43 0
-566 759 0
567 -566 -4 0
-567 566 0
-567 4 0
568 -916 -565 0
-568 916 0
-568 565 0
569 -775 -841 0
-569 775 0
-569 841 0
570 -569 -719 0
-570 569 0
-570 719 0
571 -917 -568 0
-571 917 0
-571 568 0
572 -809 -13 0
-572 809 0
-572 13 0
573 -572 -743 0
-573 572 0
-573 743 0
574 -918 -571 0
-574 918 0
-574 571 0
575 -270 -716 0
-575 270 0
-575 716 0
576 -919 -574 0
-576 919 0
-576 574 0
577 -15 -784 0
-577 15 0
-577 784 0
578 -577 -857 0
-578 577 0
-578 857 0
579 -920 -576 0
-579 920 0
-579 576 0
580 -822 -39 0
-580 822 0
-580 39 0
581 -580 -42 0
-581 580 0
-581 42 0
582 -921 -579 0
-582 921 0
-582 579 0
583 -707 -2 0
-583 707 0
-583 2 0
584 -583 -760 0
-584 583 0
-584 760 0
585 -922 -582 0
-585 922 0
-585 582 0
586 -752 -706 0
-586 752 0
-586 706 0
587 -586 -42 0
-587 586 0
-587 42 0
588 -923 -585 0
-588 923 0
-588 585 0
589 -801 -20 0
-589 801 0
-589 20 0
590 -589 -721 0
-590 589 0
-590 721 0
591 -924 -588 0
-591 924 0
-591 588 0
592 -770 -789 0
-592 770 0
-592 789 0
593 -592 -2 0
-593 592 0
-593 2 0
594 -925 -591 0
-594 925 0
-594 591 0
595 -34 -17 0
-595 34 0
-595 17 0
596 -595 -719 0
-596 595 0
-596 719 0
597 -926 -594 0
-597 926 0
-597 594 0
598 -743 -825 0
-598 743 0
-598 825 0
599 -598 -716 0
-599 598 0
-599 716 0
600 -927 -597 0
-600 927 0
-600 597 0
601 -703 -6 0
-601 703 0
-601 6 0
602 -601 -45 0
-602 601 0
-602 45 0
603 -928 -600 0
-603 928 0
-603 600 0
604 -19 -5 0
-604 19 0
-604 5 0
605 -604 -47 0
-605 604 0
-605 47 0
606 -929 -603 0
-606 929 0
-606 603 0
607 -526 -779 0
-607 526 0
-607 779 0
608 -930 -606 0
-608 930 0
-608 606 0
609 -312 -779 0
-609 312 0
-609 779 0
610 -931 -608 0
-610 931 0
-610 608 0
611 -715 -700 0
-611 715 0
-611 700 0
612 -611 -825 0
-612 611 0
-612 825 0
613 -932 -610 0
-613 932 0
-613 610 0
614 -46 -2 0
-614 46 0
-614 2 0
615 -614 -3 0
-615 614 0
-615 3 0
616 -933 -613 0
-616 933 0
-616 613 0
617 -21 -703 0
-617 21 0
-617 703 0
618 -617 -749 0
-618 617 0
-618 749 0
619 -934 -616 0
-619 934 0
-619 616 0
620 -39 -702 0
-620 39 0
-620 702 0
621 -620 -14 0
-621 620 0
-621 14 0
622 -935 -619 0
-622 935 0
-622 619 0
623 -31 -694 0
-623 31 0
-623 694 0
624 -623 -749 0
-624 623 0
-624 749 0
625 -936 -622 0
-625 936 0
-625 622 0
626 -746 -711 0
-626 746 0
-626 711 0
627 -626 -45 0
-627 626 0
-627 45 0
628 -937 -625 0
-628 937 0
-628 625 0
629 -48 -697 0
-629 48 0
-629 697 0
630 -629 -11 0
-630 629 0
-630 11 0
631 -938 -628 0
-631 938 0
-631 628 0
632 -731 -14 0
-632 731 0
-632 14 0
633 -632 -756 0
-633 632 0
-633 756 0
634 -939 -631 0
-634 939 0
-634 631 0
635 -779 -742 0
-635 779 0
-635 742 0
636 -635 -38 0
-636 635 0
-636 38 0
637 -940 -634 0
-637 940 0
-637 634 0
638 -709 -742 0
-638 709 0
-638 742 0
639 -638 -40 0
-639 638 0
-639 40 0
640 -941 -637 0
-640 941 0
-640 637 0
641 -719 -697 0
-641 719 0
-641 697 0
642 -641 -42 0
-642 641 0
-642 42 0
643 -942 -640 0
-643 942 0
-643 640 0
644 -39 -718 0
-644 39 0
-644 718 0
645 -644 -711 0
-645 644 0
-645 711 0
646 -943 -643 0
-646 943 0
-646 643 0
647 -759 -38 0
-647 759 0
-647 38 0
648 -647 -2 0
-648 647 0
-648 2 0
649 -944 -646 0
-649 944 0
-649 646 0
650 -626 -721 0
-650 626 0
-650 721 0
651 -945 -649 0
-651 945 0
-651 649 0
652 -43 -710 0
-652 43 0
-652 710 0
653 -652 -770 0
-653 652 0
-653 770 0
654 -946 -651 0
-654 946 0
-654 651 0
655 -746 -694 0
-655 746 0
-655 694 0
656 -655 -825 0
-656 655 0
-656 825 0
657 -947 -654 0
-657 947 0
-657 654 0
658 -47 -5 0
-658 47 0
-658 5 0
659 -658 -746 0
-659 658 0
-659 746 0
660 -948 -657 0
-660 948 0
-660 657 0
661 -772 -700 0
-661 772 0
-661 700 0
662 -661 -736 0
-662 661 0
-662 736 0
663 -949 -660 0
-663 949 0
-663 660 0
664 -725 -718 0
-664 725 0
-664 718 0
665 -664 -47 0
-665 664 0
-665 47 0
666 -950 -663 0
-666 950 0
-666 663 0
667 -715 -13 0
-667 715 0
-667 13 0
668 -667 -33 0
-668 667 0
-668 33 0
669 -951 -666 0
-669 951 0
-669 666 0
670 -32 -706 0
-670 32 0
-670 706 0
671 -670 -39 0
-671 670 0
-671 39 0
672 -952 -669 0
-672 952 0
-672 669 0
673 -26 -11 0
-673 26 0
-673 11 0
674 -673 -35 0
-674 673 0
-674 35 0
675 -953 -672 0
-675 953 0
-675 672 0
676 -33 -10 0
-676 33 0
-676 10 0
677 -676 -5 0
-677 676 0
-677 5 0
678 -954 -675 0
-678 954 0
-678 675 0
679 -721 -742 0
-679 721 0
-679 742 0
680 -679 -749 0
-680 679 0
-680 749 0
681 -955 -678 0
-681 955 0
-681 678 0
682 -841 -19 0
-682 841 0
-682 19 0
683 -682 -697 0
-683 682 0
-683 697 0
684 -956 -681 0
-684 956 0
-684 681 0
685 -664 -764 0
-685 664 0
-685 764 0
686 -957 -684 0
-686 957 0
-686 684 0
687 -572 -770 0
-687 572 0
-687 770 0
688 -958 -686 0
-688 958 0
-688 686 0
689 -6 -1 0
-689 6 0
-689 1 0
690 -689 -719 0
-690 689 0
-690 719 0
691 -959 -688 0
-691 959 0
-691 688 0
-692 -54 0
692 54 0
-693 -52 0
693 52 0
-694 -4 0
694 4 0
-695 -8 0
695 8 0
-696 -57 0
696 57 0
-697 -10 0
697 10 0
-698 -11 0
698 11 0
-699 -60 0
699 60 0
-700 -7 0
700 7 0
-701 -63 0
701 63 0
-702 -13 0
702 13 0
-703 -14 0
703 14 0
-704 -66 0
704 66 0
-705 -69 0
705 69 0
-706 -18 0
706 18 0
-707 -17 0
707 17 0
-708 -72 0
708 72 0
-709 -21 0
709 21 0
-710 -20 0
710 20 0
-711 -19 0
711 19 0
-712 -75 0
712 75 0
-713 -22 0
713 22 0
-714 -78 0
714 78 0
-715 -23 0
715 23 0
-716 -25 0
716 25 0
-717 -81 0
717 81 0
-718 -26 0
718 26 0
-719 -24 0
719 24 0
-720 -84 0
720 84 0
-721 -28 0
721 28 0
-722 -87 0
722 87 0
-723 -30 0
723 30 0
-724 -90 0
724 90 0
-725 -31 0
725 31 0
-726 -93 0
726 93 0
-727 -32 0
727 32 0
-728 -96 0
728 96 0
-729 -29 0
729 29 0
-730 -99 0
730 99 0
-731 -33 0
731 33 0
-732 -102 0
732 102 0
-733 -105 0
733 105 0
-734 -35 0
734 35 0
-735 -108 0
735 108 0
-736 -37 0
736 37 0
-737 -111 0
737 111 0
-738 -114 0
738 114 0
-739 -117 0
739 117 0
-740 -120 0
740 120 0
-741 -123 0
741 123 0
-742 -1 0
742 1 0
-743 -38 0
743 38 0
-744 -126 0
744 126 0
-745 -129 0
745 129 0
-746 -41 0
746 41 0
-747 -132 0
747 132 0
-748 -135 0
748 135 0
-749 -3 0
749 3 0
-750 -138 0
750 138 0
-751 -141 0
751 141 0
-752 -47 0
752 47 0
-753 -144 0
753 144 0
-754 -147 0
754 147 0
-755 -150 0
755 150 0
-756 -48 0
756 48 0
-757 -153 0
757 153 0
-758 -155 0
758 155 0
-759 -40 0
759 40 0
-760 -16 0
760 16 0
-761 -158 0
761 158 0
-762 -161 0
762 161 0
-763 -164 0
763 164 0
-764 -12 0
764 12 0
-765 -167 0
765 167 0
-766 -6 0
766 6 0
-767 -170 0
767 170 0
-768 -173 0
768 173 0
-769 -176 0
769 176 0
-770 -44 0
770 44 0
-771 -179 0
771 179 0
-772 -42 0
772 42 0
-773 -182 0
773 182 0
-774 -185 0
774 185 0
-775 -50 0
775 50 0
-776 -187 0
776 187 0
-777 -190 0
777 190 0
-778 -193 0
778 193 0
-779 -34 0
779 34 0
-780 -196 0
780 196 0
-781 -199 0
781 199 0
-782 -202 0
782 202 0
-783 -39 0
783 39 0
-784 -5 0
784 5 0
-785 -205 0
785 205 0
-786 -208 0
786 208 0
-787 -211 0
787 211 0
-788 -214 0
788 214 0
-789 -9 0
789 9 0
-790 -217 0
790 217 0
-791 -220 0
791 220 0
-792 -223 0
792 223 0
-793 -226 0
793 226 0
-794 -229 0
794 229 0
-795 -232 0
795 232 0
-796 -46 0
796 46 0
-797 -235 0
797 235 0
-798 -238 0
798 238 0
-799 -241 0
799 241 0
-800 -244 0
800 244 0
-801 -49 0
801 49 0
-802 -247 0
802 247 0
-803 -250 0
803 250 0
-804 -253 0
804 253 0
-805 -256 0
805 256 0
-806 -259 0
806 259 0
-807 -262 0
807 262 0
-808 -265 0
808 265 0
-809 -27 0
809 27 0
-810 -268 0
810 268 0
-811 -271 0
811 271 0
-812 -274 0
812 274 0
-813 -277 0
813 277 0
-814 -280 0
814 280 0
-815 -283 0
815 283 0
-816 -286 0
816 286 0
-817 -289 0
817 289 0
-818 -292 0
818 292 0
-819 -295 0
819 295 0
-820 -298 0
820 298 0
-821 -301 0
821 301 0
-822 -43 0
822 43 0
-823 -304 0
823 304 0
-824 -307 0
824 307 0
-825 -15 0
825 15 0
-826 -310 0
826 310 0
-827 -313 0
827 313 0
-828 -316 0
828 316 0
-829 -319 0
829 319 0
-830 -322 0
830 322 0
-831 -325 0
831 325 0
-832 -328 0
832 328 0
-833 -331 0
833 331 0
-834 -334 0
834 334 0
-835 -337 0
835 337 0
-836 -340 0
836 340 0
-837 -343 0
837 343 0
-838 -346 0
838 346 0
-839 -349 0
839 349 0
-840 -352 0
840 352 0
-841 -36 0
841 36 0
-842 -355 0
842 355 0
-843 -358 0
843 358 0
-844 -361 0
844 361 0
-845 -364 0
845 364 0
-846 -367 0
846 367 0
-847 -370 0
847 370 0
-848 -373 0
848 373 0
-849 -376 0
849 376 0
-850 -45 0
850 45 0
-851 -379 0
851 379 0
-852 -382 0
852 382 0
-853 -385 0
853 385 0
-854 -388 0
854 388 0
-855 -391 0
855 391 0
-856 -393 0
856 393 0
-857 -2 0
857 2 0
-858 -396 0
858 396 0
-859 -399 0
859 399 0
-860 -402 0
860 402 0
-861 -405 0
861 405 0
-862 -408 0
862 408 0
-863 -411 0
863 411 0
-864 -414 0
864 414 0
-865 -417 0
865 417 0
-866 -419 0
866 419 0
-867 -422 0
867 422 0
-868 -425 0
868 425 0
-869 -428 0
869 428 0
-870 -431 0
870 431 0
-871 -434 0
871 434 0
-872 -437 0
872 437 0
-873 -440 0
873 440 0
-874 -443 0
874 443 0
-875 -446 0
875 446 0
-876 -449 0
876 449 0
-877 -452 0
877 452 0
-878 -455 0
878 455 0
-879 -458 0
879 458 0
-880 -461 0
880 461 0
-881 -464 0
881 464 0
-882 -467 0
882 467 0
-883 -470 0
883 470 0
-884 -473 0
884 473 0
-885 -476 0
885 476 0
-886 -479 0
886 479 0
-887 -482 0
887 482 0
-888 -485 0
888 485 0
-889 -488 0
889 488 0
-890 -491 0
890 491 0
-891 -494 0
891 494 0
-892 -497 0
892 497 0
-893 -500 0
893 500 0
-894 -503 0
894 503 0
-895 -506 0
895 506 0
-896 -509 0
896 509 0
-897 -512 0
897 512 0
-898 -515 0
898 515 0
-899 -518 0
899 518 0
-900 -521 0
900 521 0
-901 -524 0
901 524 0
-902 -527 0
902 527 0
-903 -530 0
903 530 0
-904 -533 0
904 533 0
-905 -536 0
905 536 0
-906 -538 0
906 538 0
-907 -541 0
907 541 0
-908 -544 0
908 544 0
-909 -547 0
909 547 0
-910 -549 0
910 549 0
-911 -552 0
911 552 0
-912 -555 0
912 555 0
-913 -558 0
913 558 0
-914 -561 0
914 561 0
-915 -564 0
915 564 0
-916 -567 0
916 567 0
-917 -570 0
917 570 0
-918 -573 0
918 573 0
-919 -575 0
919 575 0
-920 -578 0
920 578 0
-921 -581 0
921 581 0
-922 -584 0
922 584 0
-923 -587 0
923 587 0
-924 -590 0
924 590 0
-925 -593 0
925 593 0
-926 -596 0
926 596 0
-927 -599 0
927 599 0
-928 -602 0
928 602 0
-929 -605 0
929 605 0
-930 -607 0
930 607 0
-931 -609 0
931 609 0
-932 -612 0
932 612 0
-933 -615 0
933 615 0
-934 -618 0
934 618 0
-935 -621 0
935 621 0
-936 -624 0
936 624 0
-937 -627 0
937 627 0
-938 -630 0
938 630 0
-939 -633 0
939 633 0
-940 -636 0
940 636 0
-941 -639 0
941 639 0
-942 -642 0
942 642 0
-943 -645 0
943 645 0
-944 -648 0
944 648 0
-945 -650 0
945 650 0
-946 -653 0
946 653 0
-947 -656 0
947 656 0
-948 -659 0
948 659 0
-949 -662 0
949 662 0
-950 -665 0
950 665 0
-951 -668 0
951 668 0
-952 -671 0
952 671 0
-953 -674 0
953 674 0
-954 -677 0
954 677 0
-955 -680 0
955 680 0
-956 -683 0
956 683 0
-957 -685 0
957 685 0
-958 -687 0
958 687 0
-959 -690 0
959 690 0
691 0
